# Choose potential
pair_style mlip mlip.ini
pair_coeff * * 
